NAME /Users/henri/Research/solvers/instances/idol-instances/robust/collection/spp_dkp_Lefebvre_et_al_2026/shortest_path_10_6/models/uncertain_ctr/model
ROWS
 N  OBJ
 E  flow_cons_inner_nodes[0]
 E  flow_cons_inner_nodes[1]
 E  flow_cons_inner_nodes[2]
 E  flow_cons_inner_nodes[4]
 E  flow_cons_inner_nodes[5]
 E  flow_cons_inner_nodes[6]
 E  flow_cons_inner_nodes[7]
 E  flow_cons_inner_nodes[8]
 E  flow_cons_source
 E  flow_cons_target
 G  c_13139
COLUMNS
    z          OBJ        1
    z          c_13139    1
    MARKER    'MARKER'                 'INTORG'
    y[0,1]     OBJ        0
    y[0,1]     c_13139    -62.27
    y[0,1]     flow_cons_inner_nodes[1] 1
    y[0,1]     flow_cons_inner_nodes[0] -1
    y[0,2]     OBJ        0
    y[0,2]     c_13139    -35
    y[0,2]     flow_cons_inner_nodes[2] 1
    y[0,2]     flow_cons_inner_nodes[0] -1
    y[0,3]     OBJ        0
    y[0,3]     c_13139    -68.88
    y[0,3]     flow_cons_source -1
    y[0,3]     flow_cons_inner_nodes[0] -1
    y[0,4]     OBJ        0
    y[0,4]     c_13139    -17.09
    y[0,4]     flow_cons_inner_nodes[4] 1
    y[0,4]     flow_cons_inner_nodes[0] -1
    y[0,5]     OBJ        0
    y[0,5]     c_13139    -60.75
    y[0,5]     flow_cons_inner_nodes[5] 1
    y[0,5]     flow_cons_inner_nodes[0] -1
    y[0,6]     OBJ        0
    y[0,6]     c_13139    -24.21
    y[0,6]     flow_cons_inner_nodes[6] 1
    y[0,6]     flow_cons_inner_nodes[0] -1
    y[0,7]     OBJ        0
    y[0,7]     c_13139    -67.36
    y[0,7]     flow_cons_inner_nodes[7] 1
    y[0,7]     flow_cons_inner_nodes[0] -1
    y[0,8]     OBJ        0
    y[0,8]     c_13139    -61.47
    y[0,8]     flow_cons_inner_nodes[8] 1
    y[0,8]     flow_cons_inner_nodes[0] -1
    y[0,9]     OBJ        0
    y[0,9]     c_13139    -17.69
    y[0,9]     flow_cons_target 1
    y[0,9]     flow_cons_inner_nodes[0] -1
    y[1,0]     OBJ        0
    y[1,0]     c_13139    -62.27
    y[1,0]     flow_cons_inner_nodes[1] -1
    y[1,0]     flow_cons_inner_nodes[0] 1
    y[1,2]     OBJ        0
    y[1,2]     c_13139    -75.06
    y[1,2]     flow_cons_inner_nodes[2] 1
    y[1,2]     flow_cons_inner_nodes[1] -1
    y[1,3]     OBJ        0
    y[1,3]     c_13139    -37.2
    y[1,3]     flow_cons_source -1
    y[1,3]     flow_cons_inner_nodes[1] -1
    y[1,4]     OBJ        0
    y[1,4]     c_13139    -67.18
    y[1,4]     flow_cons_inner_nodes[4] 1
    y[1,4]     flow_cons_inner_nodes[1] -1
    y[1,6]     OBJ        0
    y[1,6]     c_13139    -63.41
    y[1,6]     flow_cons_inner_nodes[6] 1
    y[1,6]     flow_cons_inner_nodes[1] -1
    y[1,7]     OBJ        0
    y[1,7]     c_13139    -13.34
    y[1,7]     flow_cons_inner_nodes[7] 1
    y[1,7]     flow_cons_inner_nodes[1] -1
    y[1,8]     OBJ        0
    y[1,8]     c_13139    -8.54
    y[1,8]     flow_cons_inner_nodes[8] 1
    y[1,8]     flow_cons_inner_nodes[1] -1
    y[2,0]     OBJ        0
    y[2,0]     c_13139    -35
    y[2,0]     flow_cons_inner_nodes[2] -1
    y[2,0]     flow_cons_inner_nodes[0] 1
    y[2,1]     OBJ        0
    y[2,1]     c_13139    -75.06
    y[2,1]     flow_cons_inner_nodes[2] -1
    y[2,1]     flow_cons_inner_nodes[1] 1
    y[2,3]     OBJ        0
    y[2,3]     c_13139    -62.43
    y[2,3]     flow_cons_source -1
    y[2,3]     flow_cons_inner_nodes[2] -1
    y[2,4]     OBJ        0
    y[2,4]     c_13139    -51.62
    y[2,4]     flow_cons_inner_nodes[4] 1
    y[2,4]     flow_cons_inner_nodes[2] -1
    y[2,5]     OBJ        0
    y[2,5]     c_13139    -29
    y[2,5]     flow_cons_inner_nodes[5] 1
    y[2,5]     flow_cons_inner_nodes[2] -1
    y[2,6]     OBJ        0
    y[2,6]     c_13139    -59.2
    y[2,6]     flow_cons_inner_nodes[6] 1
    y[2,6]     flow_cons_inner_nodes[2] -1
    y[2,7]     OBJ        0
    y[2,7]     c_13139    -73.76
    y[2,7]     flow_cons_inner_nodes[7] 1
    y[2,7]     flow_cons_inner_nodes[2] -1
    y[2,8]     OBJ        0
    y[2,8]     c_13139    -78.16
    y[2,8]     flow_cons_inner_nodes[8] 1
    y[2,8]     flow_cons_inner_nodes[2] -1
    y[2,9]     OBJ        0
    y[2,9]     c_13139    -40.79
    y[2,9]     flow_cons_target 1
    y[2,9]     flow_cons_inner_nodes[2] -1
    y[3,0]     OBJ        0
    y[3,0]     c_13139    -68.88
    y[3,0]     flow_cons_source 1
    y[3,0]     flow_cons_inner_nodes[0] 1
    y[3,1]     OBJ        0
    y[3,1]     c_13139    -37.2
    y[3,1]     flow_cons_source 1
    y[3,1]     flow_cons_inner_nodes[1] 1
    y[3,2]     OBJ        0
    y[3,2]     c_13139    -62.43
    y[3,2]     flow_cons_source 1
    y[3,2]     flow_cons_inner_nodes[2] 1
    y[3,5]     OBJ        0
    y[3,5]     c_13139    -53.15
    y[3,5]     flow_cons_source 1
    y[3,5]     flow_cons_inner_nodes[5] 1
    y[3,7]     OBJ        0
    y[3,7]     c_13139    -25.5
    y[3,7]     flow_cons_source 1
    y[3,7]     flow_cons_inner_nodes[7] 1
    y[3,8]     OBJ        0
    y[3,8]     c_13139    -45.49
    y[3,8]     flow_cons_source 1
    y[3,8]     flow_cons_inner_nodes[8] 1
    y[4,0]     OBJ        0
    y[4,0]     c_13139    -17.09
    y[4,0]     flow_cons_inner_nodes[4] -1
    y[4,0]     flow_cons_inner_nodes[0] 1
    y[4,1]     OBJ        0
    y[4,1]     c_13139    -67.18
    y[4,1]     flow_cons_inner_nodes[4] -1
    y[4,1]     flow_cons_inner_nodes[1] 1
    y[4,2]     OBJ        0
    y[4,2]     c_13139    -51.62
    y[4,2]     flow_cons_inner_nodes[4] -1
    y[4,2]     flow_cons_inner_nodes[2] 1
    y[4,5]     OBJ        0
    y[4,5]     flow_cons_inner_nodes[5] 1
    y[4,5]     c_13139    -77.83
    y[4,5]     flow_cons_inner_nodes[4] -1
    y[4,6]     OBJ        0
    y[4,6]     flow_cons_inner_nodes[6] 1
    y[4,6]     c_13139    -9.49
    y[4,6]     flow_cons_inner_nodes[4] -1
    y[4,7]     OBJ        0
    y[4,7]     flow_cons_inner_nodes[7] 1
    y[4,7]     c_13139    -75
    y[4,7]     flow_cons_inner_nodes[4] -1
    y[4,8]     OBJ        0
    y[4,8]     flow_cons_inner_nodes[8] 1
    y[4,8]     c_13139    -64.2
    y[4,8]     flow_cons_inner_nodes[4] -1
    y[4,9]     OBJ        0
    y[4,9]     flow_cons_target 1
    y[4,9]     c_13139    -19.42
    y[4,9]     flow_cons_inner_nodes[4] -1
    y[5,0]     OBJ        0
    y[5,0]     c_13139    -60.75
    y[5,0]     flow_cons_inner_nodes[5] -1
    y[5,0]     flow_cons_inner_nodes[0] 1
    y[5,2]     OBJ        0
    y[5,2]     c_13139    -29
    y[5,2]     flow_cons_inner_nodes[5] -1
    y[5,2]     flow_cons_inner_nodes[2] 1
    y[5,3]     OBJ        0
    y[5,3]     c_13139    -53.15
    y[5,3]     flow_cons_source -1
    y[5,3]     flow_cons_inner_nodes[5] -1
    y[5,4]     OBJ        0
    y[5,4]     flow_cons_inner_nodes[5] -1
    y[5,4]     c_13139    -77.83
    y[5,4]     flow_cons_inner_nodes[4] 1
    y[5,7]     OBJ        0
    y[5,7]     c_13139    -73.16
    y[5,7]     flow_cons_inner_nodes[7] 1
    y[5,7]     flow_cons_inner_nodes[5] -1
    y[5,9]     OBJ        0
    y[5,9]     c_13139    -69.46
    y[5,9]     flow_cons_target 1
    y[5,9]     flow_cons_inner_nodes[5] -1
    y[6,0]     OBJ        0
    y[6,0]     c_13139    -24.21
    y[6,0]     flow_cons_inner_nodes[6] -1
    y[6,0]     flow_cons_inner_nodes[0] 1
    y[6,1]     OBJ        0
    y[6,1]     c_13139    -63.41
    y[6,1]     flow_cons_inner_nodes[6] -1
    y[6,1]     flow_cons_inner_nodes[1] 1
    y[6,2]     OBJ        0
    y[6,2]     c_13139    -59.2
    y[6,2]     flow_cons_inner_nodes[6] -1
    y[6,2]     flow_cons_inner_nodes[2] 1
    y[6,4]     OBJ        0
    y[6,4]     flow_cons_inner_nodes[6] -1
    y[6,4]     c_13139    -9.49
    y[6,4]     flow_cons_inner_nodes[4] 1
    y[6,7]     OBJ        0
    y[6,7]     c_13139    -72.56
    y[6,7]     flow_cons_inner_nodes[7] 1
    y[6,7]     flow_cons_inner_nodes[6] -1
    y[6,8]     OBJ        0
    y[6,8]     c_13139    -59.4
    y[6,8]     flow_cons_inner_nodes[8] 1
    y[6,8]     flow_cons_inner_nodes[6] -1
    y[6,9]     OBJ        0
    y[6,9]     c_13139    -28.86
    y[6,9]     flow_cons_target 1
    y[6,9]     flow_cons_inner_nodes[6] -1
    y[7,0]     OBJ        0
    y[7,0]     c_13139    -67.36
    y[7,0]     flow_cons_inner_nodes[7] -1
    y[7,0]     flow_cons_inner_nodes[0] 1
    y[7,1]     OBJ        0
    y[7,1]     c_13139    -13.34
    y[7,1]     flow_cons_inner_nodes[7] -1
    y[7,1]     flow_cons_inner_nodes[1] 1
    y[7,2]     OBJ        0
    y[7,2]     c_13139    -73.76
    y[7,2]     flow_cons_inner_nodes[7] -1
    y[7,2]     flow_cons_inner_nodes[2] 1
    y[7,3]     OBJ        0
    y[7,3]     c_13139    -25.5
    y[7,3]     flow_cons_source -1
    y[7,3]     flow_cons_inner_nodes[7] -1
    y[7,4]     OBJ        0
    y[7,4]     flow_cons_inner_nodes[7] -1
    y[7,4]     c_13139    -75
    y[7,4]     flow_cons_inner_nodes[4] 1
    y[7,5]     OBJ        0
    y[7,5]     c_13139    -73.16
    y[7,5]     flow_cons_inner_nodes[7] -1
    y[7,5]     flow_cons_inner_nodes[5] 1
    y[7,6]     OBJ        0
    y[7,6]     c_13139    -72.56
    y[7,6]     flow_cons_inner_nodes[7] -1
    y[7,6]     flow_cons_inner_nodes[6] 1
    y[7,8]     OBJ        0
    y[7,8]     c_13139    -21.84
    y[7,8]     flow_cons_inner_nodes[8] 1
    y[7,8]     flow_cons_inner_nodes[7] -1
    y[8,0]     OBJ        0
    y[8,0]     c_13139    -61.47
    y[8,0]     flow_cons_inner_nodes[8] -1
    y[8,0]     flow_cons_inner_nodes[0] 1
    y[8,1]     OBJ        0
    y[8,1]     c_13139    -8.54
    y[8,1]     flow_cons_inner_nodes[8] -1
    y[8,1]     flow_cons_inner_nodes[1] 1
    y[8,2]     OBJ        0
    y[8,2]     c_13139    -78.16
    y[8,2]     flow_cons_inner_nodes[8] -1
    y[8,2]     flow_cons_inner_nodes[2] 1
    y[8,3]     OBJ        0
    y[8,3]     c_13139    -45.49
    y[8,3]     flow_cons_source -1
    y[8,3]     flow_cons_inner_nodes[8] -1
    y[8,4]     OBJ        0
    y[8,4]     flow_cons_inner_nodes[8] -1
    y[8,4]     c_13139    -64.2
    y[8,4]     flow_cons_inner_nodes[4] 1
    y[8,6]     OBJ        0
    y[8,6]     c_13139    -59.4
    y[8,6]     flow_cons_inner_nodes[8] -1
    y[8,6]     flow_cons_inner_nodes[6] 1
    y[8,7]     OBJ        0
    y[8,7]     c_13139    -21.84
    y[8,7]     flow_cons_inner_nodes[8] -1
    y[8,7]     flow_cons_inner_nodes[7] 1
    y[9,0]     OBJ        0
    y[9,0]     c_13139    -17.69
    y[9,0]     flow_cons_target -1
    y[9,0]     flow_cons_inner_nodes[0] 1
    y[9,2]     OBJ        0
    y[9,2]     c_13139    -40.79
    y[9,2]     flow_cons_target -1
    y[9,2]     flow_cons_inner_nodes[2] 1
    y[9,4]     OBJ        0
    y[9,4]     flow_cons_target -1
    y[9,4]     c_13139    -19.42
    y[9,4]     flow_cons_inner_nodes[4] 1
    y[9,5]     OBJ        0
    y[9,5]     c_13139    -69.46
    y[9,5]     flow_cons_target -1
    y[9,5]     flow_cons_inner_nodes[5] 1
    y[9,6]     OBJ        0
    y[9,6]     c_13139    -28.86
    y[9,6]     flow_cons_target -1
    y[9,6]     flow_cons_inner_nodes[6] 1
    MARKER    'MARKER'                 'INTEND'
RHS
    RHS       flow_cons_inner_nodes[0] -0
    RHS       flow_cons_inner_nodes[1] -0
    RHS       flow_cons_inner_nodes[2] -0
    RHS       flow_cons_inner_nodes[4] -0
    RHS       flow_cons_inner_nodes[5] -0
    RHS       flow_cons_inner_nodes[6] -0
    RHS       flow_cons_inner_nodes[7] -0
    RHS       flow_cons_inner_nodes[8] -0
    RHS       flow_cons_source 1
    RHS       flow_cons_target 1
    RHS       c_13139    -0
BOUNDS
 LI BND       y[0,1]     0
 UI BND       y[0,1]     1
 LI BND       y[0,2]     0
 UI BND       y[0,2]     1
 LI BND       y[0,3]     0
 UI BND       y[0,3]     1
 LI BND       y[0,4]     0
 UI BND       y[0,4]     1
 LI BND       y[0,5]     0
 UI BND       y[0,5]     1
 LI BND       y[0,6]     0
 UI BND       y[0,6]     1
 LI BND       y[0,7]     0
 UI BND       y[0,7]     1
 LI BND       y[0,8]     0
 UI BND       y[0,8]     1
 LI BND       y[0,9]     0
 UI BND       y[0,9]     1
 LI BND       y[1,0]     0
 UI BND       y[1,0]     1
 LI BND       y[1,2]     0
 UI BND       y[1,2]     1
 LI BND       y[1,3]     0
 UI BND       y[1,3]     1
 LI BND       y[1,4]     0
 UI BND       y[1,4]     1
 LI BND       y[1,6]     0
 UI BND       y[1,6]     1
 LI BND       y[1,7]     0
 UI BND       y[1,7]     1
 LI BND       y[1,8]     0
 UI BND       y[1,8]     1
 LI BND       y[2,0]     0
 UI BND       y[2,0]     1
 LI BND       y[2,1]     0
 UI BND       y[2,1]     1
 LI BND       y[2,3]     0
 UI BND       y[2,3]     1
 LI BND       y[2,4]     0
 UI BND       y[2,4]     1
 LI BND       y[2,5]     0
 UI BND       y[2,5]     1
 LI BND       y[2,6]     0
 UI BND       y[2,6]     1
 LI BND       y[2,7]     0
 UI BND       y[2,7]     1
 LI BND       y[2,8]     0
 UI BND       y[2,8]     1
 LI BND       y[2,9]     0
 UI BND       y[2,9]     1
 LI BND       y[3,0]     0
 UI BND       y[3,0]     1
 LI BND       y[3,1]     0
 UI BND       y[3,1]     1
 LI BND       y[3,2]     0
 UI BND       y[3,2]     1
 LI BND       y[3,5]     0
 UI BND       y[3,5]     1
 LI BND       y[3,7]     0
 UI BND       y[3,7]     1
 LI BND       y[3,8]     0
 UI BND       y[3,8]     1
 LI BND       y[4,0]     0
 UI BND       y[4,0]     1
 LI BND       y[4,1]     0
 UI BND       y[4,1]     1
 LI BND       y[4,2]     0
 UI BND       y[4,2]     1
 LI BND       y[4,5]     0
 UI BND       y[4,5]     1
 LI BND       y[4,6]     0
 UI BND       y[4,6]     1
 LI BND       y[4,7]     0
 UI BND       y[4,7]     1
 LI BND       y[4,8]     0
 UI BND       y[4,8]     1
 LI BND       y[4,9]     0
 UI BND       y[4,9]     1
 LI BND       y[5,0]     0
 UI BND       y[5,0]     1
 LI BND       y[5,2]     0
 UI BND       y[5,2]     1
 LI BND       y[5,3]     0
 UI BND       y[5,3]     1
 LI BND       y[5,4]     0
 UI BND       y[5,4]     1
 LI BND       y[5,7]     0
 UI BND       y[5,7]     1
 LI BND       y[5,9]     0
 UI BND       y[5,9]     1
 LI BND       y[6,0]     0
 UI BND       y[6,0]     1
 LI BND       y[6,1]     0
 UI BND       y[6,1]     1
 LI BND       y[6,2]     0
 UI BND       y[6,2]     1
 LI BND       y[6,4]     0
 UI BND       y[6,4]     1
 LI BND       y[6,7]     0
 UI BND       y[6,7]     1
 LI BND       y[6,8]     0
 UI BND       y[6,8]     1
 LI BND       y[6,9]     0
 UI BND       y[6,9]     1
 LI BND       y[7,0]     0
 UI BND       y[7,0]     1
 LI BND       y[7,1]     0
 UI BND       y[7,1]     1
 LI BND       y[7,2]     0
 UI BND       y[7,2]     1
 LI BND       y[7,3]     0
 UI BND       y[7,3]     1
 LI BND       y[7,4]     0
 UI BND       y[7,4]     1
 LI BND       y[7,5]     0
 UI BND       y[7,5]     1
 LI BND       y[7,6]     0
 UI BND       y[7,6]     1
 LI BND       y[7,8]     0
 UI BND       y[7,8]     1
 LI BND       y[8,0]     0
 UI BND       y[8,0]     1
 LI BND       y[8,1]     0
 UI BND       y[8,1]     1
 LI BND       y[8,2]     0
 UI BND       y[8,2]     1
 LI BND       y[8,3]     0
 UI BND       y[8,3]     1
 LI BND       y[8,4]     0
 UI BND       y[8,4]     1
 LI BND       y[8,6]     0
 UI BND       y[8,6]     1
 LI BND       y[8,7]     0
 UI BND       y[8,7]     1
 LI BND       y[9,0]     0
 UI BND       y[9,0]     1
 LI BND       y[9,2]     0
 UI BND       y[9,2]     1
 LI BND       y[9,4]     0
 UI BND       y[9,4]     1
 LI BND       y[9,5]     0
 UI BND       y[9,5]     1
 LI BND       y[9,6]     0
 UI BND       y[9,6]     1
 LO BND       z          0
 UP BND       z          4282.84
ENDATA
